words_hard_train/8198.qaiger
aag 83 13 0 1 70
2
4
12
14
24
26
30
34
38
48
60
126
148
166
6 3 5
8 2 4
10 7 9
16 12 14
18 10 17
20 11 16
22 19 21
28 25 27
32 28 31
36 32 35
40 37 38
42 23 40
44 22 41
46 43 45
50 49 24
52 48 25
54 51 53
56 46 54
58 17 3
62 59 60
64 58 61
66 63 65
68 36 5
70 69 38
72 67 71
74 56 73
76 66 70
78 24 38
80 79 27
82 78 26
84 81 83
86 84 15
88 29 38
90 89 31
92 88 30
94 91 93
96 86 94
98 85 14
100 98 95
102 97 101
104 13 15
106 105 17
108 107 34
110 106 35
112 109 111
114 33 38
116 113 115
118 112 114
120 117 119
122 103 120
124 77 122
128 59 127
130 58 126
132 129 131
134 68 61
136 135 38
138 133 136
140 132 137
142 139 141
144 124 142
146 74 144
150 59 148
152 58 149
154 151 153
156 134 38
158 156 127
160 155 158
162 154 159
164 161 163
166 146 164
i0 1 x2[4]
i1 2 y2[4]
i2 1 x2[3]
i3 1 x2[1]
i4 2 y2[0]
i5 2 y2[1]
i6 2 y2[2]
i7 2 y2[3]
i8 2 y2[7]
i9 1 x2[0]
i10 2 y2[5]
i11 2 y2[6]
i12 1 x2[7]
o0 bool[0]
c
simplified
  ==
    abs
      2 y2
    add
      or
        -156
        1 x2
      -238
