words_hard_train/8198.qaiger.qdimacs
p cnf 83 211
a 1 6 7 74 24 0
e 2 3 4 5 8 9 10 11 12 13 14 15 16 17 18 19 20 21 22 23 25 26 27 28 29 30 31 32 33 34 35 36 37 38 39 40 41 42 43 44 45 46 47 48 49 50 51 52 53 54 55 56 57 58 59 60 61 62 63 64 65 66 67 68 69 70 71 72 73 75 76 77 78 79 80 81 82 83 0
1 2 3 0
-1 -3 0
-2 -3 0
-1 -2 4 0
1 -4 0
2 -4 0
3 4 5 0
-3 -5 0
-4 -5 0
-6 -7 8 0
6 -8 0
7 -8 0
-5 8 9 0
5 -9 0
-8 -9 0
5 -8 10 0
-5 -10 0
8 -10 0
9 10 11 0
-9 -11 0
-10 -11 0
12 13 14 0
-12 -14 0
-13 -14 0
-14 15 16 0
14 -16 0
-15 -16 0
-16 17 18 0
16 -18 0
-17 -18 0
18 -19 20 0
-18 -20 0
19 -20 0
11 -20 21 0
-11 -21 0
20 -21 0
-11 20 22 0
11 -22 0
-20 -22 0
21 22 23 0
-21 -23 0
-22 -23 0
24 -12 25 0
-24 -25 0
12 -25 0
-24 12 26 0
24 -26 0
-12 -26 0
25 26 27 0
-25 -27 0
-26 -27 0
-23 -27 28 0
23 -28 0
27 -28 0
8 1 29 0
-8 -29 0
-1 -29 0
29 -30 31 0
-29 -31 0
30 -31 0
-29 30 32 0
29 -32 0
-30 -32 0
31 32 33 0
-31 -33 0
-32 -33 0
-18 2 34 0
18 -34 0
-2 -34 0
34 -19 35 0
-34 -35 0
19 -35 0
33 35 36 0
-33 -36 0
-35 -36 0
-28 36 37 0
28 -37 0
-36 -37 0
-33 -35 38 0
33 -38 0
35 -38 0
-12 -19 39 0
12 -39 0
19 -39 0
39 13 40 0
-39 -40 0
-13 -40 0
-39 -13 41 0
39 -41 0
13 -41 0
40 41 42 0
-40 -42 0
-41 -42 0
-42 7 43 0
42 -43 0
-7 -43 0
14 -19 44 0
-14 -44 0
19 -44 0
44 15 45 0
-44 -45 0
-15 -45 0
-44 -15 46 0
44 -46 0
15 -46 0
45 46 47 0
-45 -47 0
-46 -47 0
-43 -47 48 0
43 -48 0
47 -48 0
42 -7 49 0
-42 -49 0
7 -49 0
-49 47 50 0
49 -50 0
-47 -50 0
48 50 51 0
-48 -51 0
-50 -51 0
6 7 52 0
-6 -52 0
-7 -52 0
52 8 53 0
-52 -53 0
-8 -53 0
53 -17 54 0
-53 -54 0
17 -54 0
-53 17 55 0
53 -55 0
-17 -55 0
54 55 56 0
-54 -56 0
-55 -56 0
16 -19 57 0
-16 -57 0
19 -57 0
56 57 58 0
-56 -58 0
-57 -58 0
-56 -57 59 0
56 -59 0
57 -59 0
58 59 60 0
-58 -60 0
-59 -60 0
51 -60 61 0
-51 -61 0
60 -61 0
38 -61 62 0
-38 -62 0
61 -62 0
29 63 64 0
-29 -64 0
-63 -64 0
-29 -63 65 0
29 -65 0
63 -65 0
64 65 66 0
-64 -66 0
-65 -66 0
-34 30 67 0
34 -67 0
-30 -67 0
67 -19 68 0
-67 -68 0
19 -68 0
66 -68 69 0
-66 -69 0
68 -69 0
-66 68 70 0
66 -70 0
-68 -70 0
69 70 71 0
-69 -71 0
-70 -71 0
-62 -71 72 0
62 -72 0
71 -72 0
-37 -72 73 0
37 -73 0
72 -73 0
29 -74 75 0
-29 -75 0
74 -75 0
-29 74 76 0
29 -76 0
-74 -76 0
75 76 77 0
-75 -77 0
-76 -77 0
-67 -19 78 0
67 -78 0
19 -78 0
-78 63 79 0
78 -79 0
-63 -79 0
77 -79 80 0
-77 -80 0
79 -80 0
-77 79 81 0
77 -81 0
-79 -81 0
80 81 82 0
-80 -82 0
-81 -82 0
-73 -82 83 0
73 -83 0
82 -83 0
83 0
